(set-logic QF_NRA)
(set-info :source |
SMT script generated by Ultimate Automizer [1,2].
Ultimate Automizer is a software verifier for C programs that implements an
automata-based approach [3].
The commands in this SMT scripts are used for a constraint-based synthesis
of invariants [4].

2016-04-30, Matthias Heizmann (heizmann@informatik.uni-freiburg.de)


[1] http://http://ultimate.informatik.uni-freiburg.de/automizer/
[2] Matthias Heizmann, Daniel Dietsch, Marius Greitschus, Jan Leike,
Betim Musa, Claus Schätzle, Andreas Podelski: Ultimate Automizer with
Two-track Proofs - (Competition Contribution). TACAS 2016: 950-953
[3] Matthias Heizmann, Jochen Hoenicke, Andreas Podelski: Software Model
Checking for People Who Love Automata. CAV 2013:36-52
[4] Michael Colon, Sriram Sankaranarayanan, Henny Sipma: Linear Invariant
Generation Using Non-linear Constraint Solving. CAV 2003: 420-432

|)
(set-info :smt-lib-version 2.5)
(set-info :category "industrial")
(set-info :status unsat)
(declare-fun liipp_0_c () Real)
(declare-fun |liipp_0__ULTIMATE.start_main_#res| () Real)
(declare-fun liipp_0__ULTIMATE.start_main_~a1~1 () Real)
(declare-fun liipp_1_c () Real)
(declare-fun |liipp_1__ULTIMATE.start_main_#res| () Real)
(declare-fun liipp_1__ULTIMATE.start_main_~a1~1 () Real)
(declare-fun liipp_2_c () Real)
(declare-fun |liipp_2__ULTIMATE.start_main_#res| () Real)
(declare-fun liipp_2__ULTIMATE.start_main_~a1~1 () Real)
(declare-fun liipp_3_c () Real)
(declare-fun |liipp_3__ULTIMATE.start_main_#res| () Real)
(declare-fun liipp_3__ULTIMATE.start_main_~a1~1 () Real)
(declare-fun liipp_4_c () Real)
(declare-fun |liipp_4__ULTIMATE.start_main_#res| () Real)
(declare-fun liipp_4__ULTIMATE.start_main_~a1~1 () Real)
(declare-fun liipp_5_c () Real)
(declare-fun |liipp_5__ULTIMATE.start_main_#res| () Real)
(declare-fun liipp_5__ULTIMATE.start_main_~a1~1 () Real)
(declare-fun liipp_6_replace_0 () Real)
(declare-fun liipp_6_replace_1 () Real)
(declare-fun liipp_7_replace_0 () Real)
(declare-fun liipp_7_replace_1 () Real)
(declare-fun motzkin_1415_0 () Real)
(declare-fun motzkin_1415_1 () Real)
(declare-fun motzkin_1415_2 () Real)
(declare-fun motzkin_1416_0 () Real)
(declare-fun motzkin_1416_1 () Real)
(declare-fun motzkin_1416_2 () Real)
(assert (and (>= motzkin_1415_0 0.0) (>= motzkin_1415_1 0.0) (>= motzkin_1415_2 0.0) (= (+ motzkin_1415_0 (* motzkin_1415_1 (- 1.0)) (* motzkin_1415_2 (+ (* (- 1.0) liipp_2__ULTIMATE.start_main_~a1~1) 0.0))) 0.0) (= (* motzkin_1415_2 (+ (* (- 1.0) |liipp_2__ULTIMATE.start_main_#res|) 0.0)) 0.0) (<= (+ (* motzkin_1415_0 (- 518104.0)) (* motzkin_1415_1 518104.0) (* motzkin_1415_2 (+ (* (- 1.0) liipp_2_c) 0.0))) 0.0) (or (< (+ (* motzkin_1415_0 (- 518104.0)) (* motzkin_1415_1 518104.0) (* motzkin_1415_2 (+ (* (- 1.0) liipp_2_c) 0.0))) 0.0) (> 0.0 0.0)) (>= motzkin_1416_0 0.0) (>= motzkin_1416_1 0.0) (>= motzkin_1416_2 0.0) (= (+ motzkin_1416_0 (* motzkin_1416_1 (- 1.0)) (* motzkin_1416_2 (+ (* (- 1.0) liipp_3__ULTIMATE.start_main_~a1~1) 0.0))) 0.0) (= (* motzkin_1416_2 (+ (* (- 1.0) |liipp_3__ULTIMATE.start_main_#res|) 0.0)) 0.0) (<= (+ (* motzkin_1416_0 (- 518104.0)) (* motzkin_1416_1 518104.0) (* motzkin_1416_2 (+ (* (- 1.0) liipp_3_c) 0.0))) 0.0) (or (< (+ (* motzkin_1416_0 (- 518104.0)) (* motzkin_1416_1 518104.0)) 0.0) (> motzkin_1416_2 0.0))))
(declare-fun liipp_9_replace_0 () Real)
(declare-fun liipp_9_replace_1 () Real)
(declare-fun motzkin_1417_0 () Real)
(declare-fun motzkin_1417_1 () Real)
(declare-fun motzkin_1417_2 () Real)
(declare-fun motzkin_1417_3 () Real)
(declare-fun motzkin_1418_0 () Real)
(declare-fun motzkin_1418_1 () Real)
(declare-fun motzkin_1418_2 () Real)
(declare-fun motzkin_1418_3 () Real)
(assert (and (>= motzkin_1417_0 0.0) (>= motzkin_1417_1 0.0) (>= motzkin_1417_2 0.0) (>= motzkin_1417_3 0.0) (= (+ (* motzkin_1417_1 (+ (* (- 1.0) |liipp_0__ULTIMATE.start_main_#res|) 0.0)) (* motzkin_1417_2 (+ (* 1.0 |liipp_2__ULTIMATE.start_main_#res|) 0.0)) (* motzkin_1417_3 (+ (* 1.0 |liipp_3__ULTIMATE.start_main_#res|) 0.0))) 0.0) (= (+ (* motzkin_1417_1 (+ (* (- 1.0) liipp_0__ULTIMATE.start_main_~a1~1) 0.0)) (* motzkin_1417_2 (+ (* 1.0 liipp_2__ULTIMATE.start_main_~a1~1) 0.0)) (* motzkin_1417_3 (+ (* 1.0 liipp_3__ULTIMATE.start_main_~a1~1) 0.0))) 0.0) (<= (+ (* motzkin_1417_1 (+ (* (- 1.0) liipp_0_c) 0.0)) (* motzkin_1417_2 (+ (* 1.0 liipp_2_c) 0.0)) (* motzkin_1417_3 (+ (* 1.0 liipp_3_c) 0.0))) 0.0) (or (< (+ (* motzkin_1417_1 (+ (* (- 1.0) liipp_0_c) 0.0)) (* motzkin_1417_3 (+ (* 1.0 liipp_3_c) 0.0))) 0.0) (> motzkin_1417_2 0.0)) (>= motzkin_1418_0 0.0) (>= motzkin_1418_1 0.0) (>= motzkin_1418_2 0.0) (>= motzkin_1418_3 0.0) (= (+ (* motzkin_1418_1 (+ (* (- 1.0) |liipp_1__ULTIMATE.start_main_#res|) 0.0)) (* motzkin_1418_2 (+ (* 1.0 |liipp_2__ULTIMATE.start_main_#res|) 0.0)) (* motzkin_1418_3 (+ (* 1.0 |liipp_3__ULTIMATE.start_main_#res|) 0.0))) 0.0) (= (+ (* motzkin_1418_1 (+ (* (- 1.0) liipp_1__ULTIMATE.start_main_~a1~1) 0.0)) (* motzkin_1418_2 (+ (* 1.0 liipp_2__ULTIMATE.start_main_~a1~1) 0.0)) (* motzkin_1418_3 (+ (* 1.0 liipp_3__ULTIMATE.start_main_~a1~1) 0.0))) 0.0) (<= (+ (* motzkin_1418_1 (+ (* (- 1.0) liipp_1_c) 0.0)) (* motzkin_1418_2 (+ (* 1.0 liipp_2_c) 0.0)) (* motzkin_1418_3 (+ (* 1.0 liipp_3_c) 0.0))) 0.0) (or (< (* motzkin_1418_3 (+ (* 1.0 liipp_3_c) 0.0)) 0.0) (> (+ motzkin_1418_1 motzkin_1418_2) 0.0))))
(declare-fun liipp_10_replace_0 () Real)
(declare-fun motzkin_1419_0 () Real)
(declare-fun motzkin_1419_1 () Real)
(declare-fun motzkin_1419_2 () Real)
(declare-fun motzkin_1419_3 () Real)
(declare-fun motzkin_1419_4 () Real)
(declare-fun motzkin_1419_5 () Real)
(declare-fun motzkin_1419_6 () Real)
(declare-fun motzkin_1419_7 () Real)
(declare-fun motzkin_1419_8 () Real)
(declare-fun motzkin_1419_9 () Real)
(declare-fun motzkin_1419_10 () Real)
(declare-fun motzkin_1419_11 () Real)
(declare-fun motzkin_1419_12 () Real)
(declare-fun motzkin_1419_13 () Real)
(declare-fun motzkin_1420_0 () Real)
(declare-fun motzkin_1420_1 () Real)
(declare-fun motzkin_1420_2 () Real)
(declare-fun motzkin_1420_3 () Real)
(declare-fun motzkin_1420_4 () Real)
(declare-fun motzkin_1420_5 () Real)
(declare-fun motzkin_1420_6 () Real)
(declare-fun motzkin_1420_7 () Real)
(declare-fun motzkin_1420_8 () Real)
(declare-fun motzkin_1420_9 () Real)
(declare-fun motzkin_1420_10 () Real)
(declare-fun motzkin_1420_11 () Real)
(declare-fun motzkin_1420_12 () Real)
(declare-fun motzkin_1420_13 () Real)
(declare-fun motzkin_1421_0 () Real)
(declare-fun motzkin_1421_1 () Real)
(declare-fun motzkin_1421_2 () Real)
(declare-fun motzkin_1421_3 () Real)
(declare-fun motzkin_1421_4 () Real)
(declare-fun motzkin_1421_5 () Real)
(declare-fun motzkin_1421_6 () Real)
(declare-fun motzkin_1421_7 () Real)
(declare-fun motzkin_1421_8 () Real)
(declare-fun motzkin_1421_9 () Real)
(declare-fun motzkin_1421_10 () Real)
(declare-fun motzkin_1421_11 () Real)
(declare-fun motzkin_1421_12 () Real)
(declare-fun motzkin_1422_0 () Real)
(declare-fun motzkin_1422_1 () Real)
(declare-fun motzkin_1422_2 () Real)
(declare-fun motzkin_1422_3 () Real)
(declare-fun motzkin_1422_4 () Real)
(declare-fun motzkin_1422_5 () Real)
(declare-fun motzkin_1422_6 () Real)
(declare-fun motzkin_1422_7 () Real)
(declare-fun motzkin_1422_8 () Real)
(declare-fun motzkin_1422_9 () Real)
(declare-fun motzkin_1422_10 () Real)
(declare-fun motzkin_1422_11 () Real)
(declare-fun motzkin_1422_12 () Real)
(declare-fun motzkin_1423_0 () Real)
(declare-fun motzkin_1423_1 () Real)
(declare-fun motzkin_1423_2 () Real)
(declare-fun motzkin_1423_3 () Real)
(declare-fun motzkin_1423_4 () Real)
(declare-fun motzkin_1423_5 () Real)
(declare-fun motzkin_1423_6 () Real)
(declare-fun motzkin_1423_7 () Real)
(declare-fun motzkin_1423_8 () Real)
(declare-fun motzkin_1423_9 () Real)
(declare-fun motzkin_1423_10 () Real)
(declare-fun motzkin_1423_11 () Real)
(declare-fun motzkin_1423_12 () Real)
(declare-fun motzkin_1423_13 () Real)
(declare-fun motzkin_1424_0 () Real)
(declare-fun motzkin_1424_1 () Real)
(declare-fun motzkin_1424_2 () Real)
(declare-fun motzkin_1424_3 () Real)
(declare-fun motzkin_1424_4 () Real)
(declare-fun motzkin_1424_5 () Real)
(declare-fun motzkin_1424_6 () Real)
(declare-fun motzkin_1424_7 () Real)
(declare-fun motzkin_1424_8 () Real)
(declare-fun motzkin_1424_9 () Real)
(declare-fun motzkin_1424_10 () Real)
(declare-fun motzkin_1424_11 () Real)
(declare-fun motzkin_1424_12 () Real)
(declare-fun motzkin_1424_13 () Real)
(declare-fun motzkin_1425_0 () Real)
(declare-fun motzkin_1425_1 () Real)
(declare-fun motzkin_1425_2 () Real)
(declare-fun motzkin_1425_3 () Real)
(declare-fun motzkin_1425_4 () Real)
(declare-fun motzkin_1425_5 () Real)
(declare-fun motzkin_1425_6 () Real)
(declare-fun motzkin_1425_7 () Real)
(declare-fun motzkin_1425_8 () Real)
(declare-fun motzkin_1425_9 () Real)
(declare-fun motzkin_1425_10 () Real)
(declare-fun motzkin_1425_11 () Real)
(declare-fun motzkin_1425_12 () Real)
(declare-fun motzkin_1426_0 () Real)
(declare-fun motzkin_1426_1 () Real)
(declare-fun motzkin_1426_2 () Real)
(declare-fun motzkin_1426_3 () Real)
(declare-fun motzkin_1426_4 () Real)
(declare-fun motzkin_1426_5 () Real)
(declare-fun motzkin_1426_6 () Real)
(declare-fun motzkin_1426_7 () Real)
(declare-fun motzkin_1426_8 () Real)
(declare-fun motzkin_1426_9 () Real)
(declare-fun motzkin_1426_10 () Real)
(declare-fun motzkin_1426_11 () Real)
(declare-fun motzkin_1426_12 () Real)
(declare-fun motzkin_1427_0 () Real)
(declare-fun motzkin_1427_1 () Real)
(declare-fun motzkin_1427_2 () Real)
(declare-fun motzkin_1427_3 () Real)
(declare-fun motzkin_1427_4 () Real)
(declare-fun motzkin_1427_5 () Real)
(declare-fun motzkin_1427_6 () Real)
(declare-fun motzkin_1427_7 () Real)
(declare-fun motzkin_1427_8 () Real)
(declare-fun motzkin_1427_9 () Real)
(declare-fun motzkin_1427_10 () Real)
(declare-fun motzkin_1427_11 () Real)
(declare-fun motzkin_1427_12 () Real)
(declare-fun motzkin_1428_0 () Real)
(declare-fun motzkin_1428_1 () Real)
(declare-fun motzkin_1428_2 () Real)
(declare-fun motzkin_1428_3 () Real)
(declare-fun motzkin_1428_4 () Real)
(declare-fun motzkin_1428_5 () Real)
(declare-fun motzkin_1428_6 () Real)
(declare-fun motzkin_1428_7 () Real)
(declare-fun motzkin_1428_8 () Real)
(declare-fun motzkin_1428_9 () Real)
(declare-fun motzkin_1428_10 () Real)
(declare-fun motzkin_1428_11 () Real)
(declare-fun motzkin_1428_12 () Real)
(assert (and (>= motzkin_1419_0 0.0) (>= motzkin_1419_1 0.0) (>= motzkin_1419_2 0.0) (>= motzkin_1419_3 0.0) (>= motzkin_1419_4 0.0) (>= motzkin_1419_5 0.0) (>= motzkin_1419_6 0.0) (>= motzkin_1419_7 0.0) (>= motzkin_1419_8 0.0) (>= motzkin_1419_9 0.0) (>= motzkin_1419_10 0.0) (>= motzkin_1419_11 0.0) (>= motzkin_1419_12 0.0) (>= motzkin_1419_13 0.0) (= (+ motzkin_1419_0 (* motzkin_1419_1 (- 1.0)) (* motzkin_1419_6 (- 1.0)) motzkin_1419_7 (* motzkin_1419_8 (- 1.0)) (* motzkin_1419_9 (- 1.0)) motzkin_1419_10) 0.0) (= (+ (* motzkin_1419_0 (- 5.0)) (* motzkin_1419_1 5.0) motzkin_1419_3 (* motzkin_1419_4 (- 1.0)) (* motzkin_1419_6 5.0)) 0.0) (= (+ (* motzkin_1419_0 (- 1.0)) motzkin_1419_1 motzkin_1419_5) 0.0) (= (+ motzkin_1419_2 (* motzkin_1419_7 (- 1.0)) motzkin_1419_8 (* motzkin_1419_12 (+ (* 1.0 liipp_0__ULTIMATE.start_main_~a1~1) 0.0)) (* motzkin_1419_13 (+ (* 1.0 liipp_1__ULTIMATE.start_main_~a1~1) 0.0))) 0.0) (= (+ (* motzkin_1419_3 (- 1.0)) motzkin_1419_4 (* motzkin_1419_11 (+ (* (- 1.0) liipp_4__ULTIMATE.start_main_~a1~1) 0.0))) 0.0) (= (+ (* motzkin_1419_7 25.0) (* motzkin_1419_8 (- 25.0))) 0.0) (= (+ (* motzkin_1419_11 (+ (* (- 1.0) |liipp_4__ULTIMATE.start_main_#res|) 0.0)) (* motzkin_1419_12 (+ (* 1.0 |liipp_0__ULTIMATE.start_main_#res|) 0.0)) (* motzkin_1419_13 (+ (* 1.0 |liipp_1__ULTIMATE.start_main_#res|) 0.0))) 0.0) (<= (+ (* motzkin_1419_0 (- 42592.0)) (* motzkin_1419_1 42592.0) (* motzkin_1419_3 8518.0) (* motzkin_1419_4 (- 8518.0)) (* motzkin_1419_5 (- 1.0)) (* motzkin_1419_6 42596.0) (* motzkin_1419_9 24.0) (* motzkin_1419_11 (+ (* (- 1.0) liipp_4_c) 0.0)) (* motzkin_1419_12 (+ (* 1.0 liipp_0_c) 0.0)) (* motzkin_1419_13 (+ (* 1.0 liipp_1_c) 0.0))) 0.0) (or (< (+ (* motzkin_1419_0 (- 42592.0)) (* motzkin_1419_1 42592.0) (* motzkin_1419_3 8518.0) (* motzkin_1419_4 (- 8518.0)) (* motzkin_1419_5 (- 1.0)) (* motzkin_1419_6 42596.0) (* motzkin_1419_9 24.0) (* motzkin_1419_11 (+ (* (- 1.0) liipp_4_c) 0.0)) (* motzkin_1419_13 (+ (* 1.0 liipp_1_c) 0.0))) 0.0) (> motzkin_1419_12 0.0)) (>= motzkin_1420_0 0.0) (>= motzkin_1420_1 0.0) (>= motzkin_1420_2 0.0) (>= motzkin_1420_3 0.0) (>= motzkin_1420_4 0.0) (>= motzkin_1420_5 0.0) (>= motzkin_1420_6 0.0) (>= motzkin_1420_7 0.0) (>= motzkin_1420_8 0.0) (>= motzkin_1420_9 0.0) (>= motzkin_1420_10 0.0) (>= motzkin_1420_11 0.0) (>= motzkin_1420_12 0.0) (>= motzkin_1420_13 0.0) (= (+ motzkin_1420_0 (* motzkin_1420_1 (- 1.0)) (* motzkin_1420_6 (- 1.0)) motzkin_1420_7 (* motzkin_1420_8 (- 1.0)) (* motzkin_1420_9 (- 1.0)) motzkin_1420_10) 0.0) (= (+ (* motzkin_1420_0 (- 5.0)) (* motzkin_1420_1 5.0) motzkin_1420_3 (* motzkin_1420_4 (- 1.0)) (* motzkin_1420_6 5.0)) 0.0) (= (+ (* motzkin_1420_0 (- 1.0)) motzkin_1420_1 motzkin_1420_5) 0.0) (= (+ motzkin_1420_2 (* motzkin_1420_7 (- 1.0)) motzkin_1420_8 (* motzkin_1420_12 (+ (* 1.0 liipp_0__ULTIMATE.start_main_~a1~1) 0.0)) (* motzkin_1420_13 (+ (* 1.0 liipp_1__ULTIMATE.start_main_~a1~1) 0.0))) 0.0) (= (+ (* motzkin_1420_3 (- 1.0)) motzkin_1420_4 (* motzkin_1420_11 (+ (* (- 1.0) liipp_5__ULTIMATE.start_main_~a1~1) 0.0))) 0.0) (= (+ (* motzkin_1420_7 25.0) (* motzkin_1420_8 (- 25.0))) 0.0) (= (+ (* motzkin_1420_11 (+ (* (- 1.0) |liipp_5__ULTIMATE.start_main_#res|) 0.0)) (* motzkin_1420_12 (+ (* 1.0 |liipp_0__ULTIMATE.start_main_#res|) 0.0)) (* motzkin_1420_13 (+ (* 1.0 |liipp_1__ULTIMATE.start_main_#res|) 0.0))) 0.0) (<= (+ (* motzkin_1420_0 (- 42592.0)) (* motzkin_1420_1 42592.0) (* motzkin_1420_3 8518.0) (* motzkin_1420_4 (- 8518.0)) (* motzkin_1420_5 (- 1.0)) (* motzkin_1420_6 42596.0) (* motzkin_1420_9 24.0) (* motzkin_1420_11 (+ (* (- 1.0) liipp_5_c) 0.0)) (* motzkin_1420_12 (+ (* 1.0 liipp_0_c) 0.0)) (* motzkin_1420_13 (+ (* 1.0 liipp_1_c) 0.0))) 0.0) (or (< (+ (* motzkin_1420_0 (- 42592.0)) (* motzkin_1420_1 42592.0) (* motzkin_1420_3 8518.0) (* motzkin_1420_4 (- 8518.0)) (* motzkin_1420_5 (- 1.0)) (* motzkin_1420_6 42596.0) (* motzkin_1420_9 24.0) (* motzkin_1420_13 (+ (* 1.0 liipp_1_c) 0.0))) 0.0) (> (+ motzkin_1420_11 motzkin_1420_12) 0.0)) (>= motzkin_1421_0 0.0) (>= motzkin_1421_1 0.0) (>= motzkin_1421_2 0.0) (>= motzkin_1421_3 0.0) (>= motzkin_1421_4 0.0) (>= motzkin_1421_5 0.0) (>= motzkin_1421_6 0.0) (>= motzkin_1421_7 0.0) (>= motzkin_1421_8 0.0) (>= motzkin_1421_9 0.0) (>= motzkin_1421_10 0.0) (>= motzkin_1421_11 0.0) (>= motzkin_1421_12 0.0) (= (+ (* motzkin_1421_0 (- 1.0)) (* motzkin_1421_6 (- 1.0)) motzkin_1421_7 (* motzkin_1421_11 (+ (* 1.0 liipp_0__ULTIMATE.start_main_~a1~1) 0.0)) (* motzkin_1421_12 (+ (* 1.0 liipp_1__ULTIMATE.start_main_~a1~1) 0.0))) 0.0) (= (+ (* motzkin_1421_1 (- 1.0)) motzkin_1421_5 motzkin_1421_6 (* motzkin_1421_7 (- 1.0)) (* motzkin_1421_8 (- 1.0)) motzkin_1421_9) 0.0) (= (+ (* motzkin_1421_1 5.0) (* motzkin_1421_2 (- 1.0)) motzkin_1421_3 (* motzkin_1421_5 (- 5.0))) 0.0) (= (+ motzkin_1421_1 (* motzkin_1421_4 (- 1.0))) 0.0) (= (+ motzkin_1421_2 (* motzkin_1421_3 (- 1.0)) (* motzkin_1421_10 (+ (* (- 1.0) liipp_4__ULTIMATE.start_main_~a1~1) 0.0))) 0.0) (= (+ (* motzkin_1421_6 25.0) (* motzkin_1421_7 (- 25.0))) 0.0) (= (+ (* motzkin_1421_10 (+ (* (- 1.0) |liipp_4__ULTIMATE.start_main_#res|) 0.0)) (* motzkin_1421_11 (+ (* 1.0 |liipp_0__ULTIMATE.start_main_#res|) 0.0)) (* motzkin_1421_12 (+ (* 1.0 |liipp_1__ULTIMATE.start_main_#res|) 0.0))) 0.0) (<= (+ (* motzkin_1421_0 (- 1.0)) (* motzkin_1421_1 42617.0) (* motzkin_1421_2 (- 8517.0)) (* motzkin_1421_3 8517.0) (* motzkin_1421_5 (- 42617.0)) (* motzkin_1421_8 24.0) (* motzkin_1421_10 (+ (* (- 1.0) liipp_4_c) 0.0)) (* motzkin_1421_11 (+ (* 1.0 liipp_0_c) 0.0)) (* motzkin_1421_12 (+ (* 1.0 liipp_1_c) 0.0))) 0.0) (or (< (+ (* motzkin_1421_0 (- 1.0)) (* motzkin_1421_1 42617.0) (* motzkin_1421_2 (- 8517.0)) (* motzkin_1421_3 8517.0) (* motzkin_1421_5 (- 42617.0)) (* motzkin_1421_8 24.0) (* motzkin_1421_10 (+ (* (- 1.0) liipp_4_c) 0.0)) (* motzkin_1421_12 (+ (* 1.0 liipp_1_c) 0.0))) 0.0) (> motzkin_1421_11 0.0)) (>= motzkin_1422_0 0.0) (>= motzkin_1422_1 0.0) (>= motzkin_1422_2 0.0) (>= motzkin_1422_3 0.0) (>= motzkin_1422_4 0.0) (>= motzkin_1422_5 0.0) (>= motzkin_1422_6 0.0) (>= motzkin_1422_7 0.0) (>= motzkin_1422_8 0.0) (>= motzkin_1422_9 0.0) (>= motzkin_1422_10 0.0) (>= motzkin_1422_11 0.0) (>= motzkin_1422_12 0.0) (= (+ (* motzkin_1422_0 (- 1.0)) (* motzkin_1422_6 (- 1.0)) motzkin_1422_7 (* motzkin_1422_11 (+ (* 1.0 liipp_0__ULTIMATE.start_main_~a1~1) 0.0)) (* motzkin_1422_12 (+ (* 1.0 liipp_1__ULTIMATE.start_main_~a1~1) 0.0))) 0.0) (= (+ (* motzkin_1422_1 (- 1.0)) motzkin_1422_5 motzkin_1422_6 (* motzkin_1422_7 (- 1.0)) (* motzkin_1422_8 (- 1.0)) motzkin_1422_9) 0.0) (= (+ (* motzkin_1422_1 5.0) (* motzkin_1422_2 (- 1.0)) motzkin_1422_3 (* motzkin_1422_5 (- 5.0))) 0.0) (= (+ motzkin_1422_1 (* motzkin_1422_4 (- 1.0))) 0.0) (= (+ motzkin_1422_2 (* motzkin_1422_3 (- 1.0)) (* motzkin_1422_10 (+ (* (- 1.0) liipp_5__ULTIMATE.start_main_~a1~1) 0.0))) 0.0) (= (+ (* motzkin_1422_6 25.0) (* motzkin_1422_7 (- 25.0))) 0.0) (= (+ (* motzkin_1422_10 (+ (* (- 1.0) |liipp_5__ULTIMATE.start_main_#res|) 0.0)) (* motzkin_1422_11 (+ (* 1.0 |liipp_0__ULTIMATE.start_main_#res|) 0.0)) (* motzkin_1422_12 (+ (* 1.0 |liipp_1__ULTIMATE.start_main_#res|) 0.0))) 0.0) (<= (+ (* motzkin_1422_0 (- 1.0)) (* motzkin_1422_1 42617.0) (* motzkin_1422_2 (- 8517.0)) (* motzkin_1422_3 8517.0) (* motzkin_1422_5 (- 42617.0)) (* motzkin_1422_8 24.0) (* motzkin_1422_10 (+ (* (- 1.0) liipp_5_c) 0.0)) (* motzkin_1422_11 (+ (* 1.0 liipp_0_c) 0.0)) (* motzkin_1422_12 (+ (* 1.0 liipp_1_c) 0.0))) 0.0) (or (< (+ (* motzkin_1422_0 (- 1.0)) (* motzkin_1422_1 42617.0) (* motzkin_1422_2 (- 8517.0)) (* motzkin_1422_3 8517.0) (* motzkin_1422_5 (- 42617.0)) (* motzkin_1422_8 24.0) (* motzkin_1422_12 (+ (* 1.0 liipp_1_c) 0.0))) 0.0) (> (+ motzkin_1422_10 motzkin_1422_11) 0.0)) (>= motzkin_1423_0 0.0) (>= motzkin_1423_1 0.0) (>= motzkin_1423_2 0.0) (>= motzkin_1423_3 0.0) (>= motzkin_1423_4 0.0) (>= motzkin_1423_5 0.0) (>= motzkin_1423_6 0.0) (>= motzkin_1423_7 0.0) (>= motzkin_1423_8 0.0) (>= motzkin_1423_9 0.0) (>= motzkin_1423_10 0.0) (>= motzkin_1423_11 0.0) (>= motzkin_1423_12 0.0) (>= motzkin_1423_13 0.0) (= (+ (* motzkin_1423_0 (- 1.0)) motzkin_1423_1 (* motzkin_1423_11 (+ (* (- 1.0) liipp_4__ULTIMATE.start_main_~a1~1) 0.0))) 0.0) (= (+ motzkin_1423_0 (* motzkin_1423_1 (- 1.0)) (* motzkin_1423_5 5.0) (* motzkin_1423_6 (- 5.0)) (* motzkin_1423_7 5.0)) 0.0) (= (+ motzkin_1423_2 motzkin_1423_5 (* motzkin_1423_6 (- 1.0))) 0.0) (= (+ motzkin_1423_3 (* motzkin_1423_5 (- 1.0)) motzkin_1423_6 (* motzkin_1423_7 (- 1.0)) motzkin_1423_8 (* motzkin_1423_9 (- 1.0)) (* motzkin_1423_10 (- 1.0))) 0.0) (= (+ (* motzkin_1423_4 (- 1.0)) (* motzkin_1423_8 (- 1.0)) motzkin_1423_9 (* motzkin_1423_12 (+ (* 1.0 liipp_0__ULTIMATE.start_main_~a1~1) 0.0)) (* motzkin_1423_13 (+ (* 1.0 liipp_1__ULTIMATE.start_main_~a1~1) 0.0))) 0.0) (= (+ (* motzkin_1423_8 25.0) (* motzkin_1423_9 (- 25.0))) 0.0) (= (+ (* motzkin_1423_11 (+ (* (- 1.0) |liipp_4__ULTIMATE.start_main_#res|) 0.0)) (* motzkin_1423_12 (+ (* 1.0 |liipp_0__ULTIMATE.start_main_#res|) 0.0)) (* motzkin_1423_13 (+ (* 1.0 |liipp_1__ULTIMATE.start_main_#res|) 0.0))) 0.0) (<= (+ (* motzkin_1423_0 8518.0) (* motzkin_1423_1 (- 8518.0)) (* motzkin_1423_2 (- 1.0)) (* motzkin_1423_3 (- 1.0)) (* motzkin_1423_4 (- 1.0)) (* motzkin_1423_5 42617.0) (* motzkin_1423_6 (- 42617.0)) (* motzkin_1423_7 42621.0) (* motzkin_1423_10 24.0) (* motzkin_1423_11 (+ (* (- 1.0) liipp_4_c) 0.0)) (* motzkin_1423_12 (+ (* 1.0 liipp_0_c) 0.0)) (* motzkin_1423_13 (+ (* 1.0 liipp_1_c) 0.0))) 0.0) (or (< (+ (* motzkin_1423_0 8518.0) (* motzkin_1423_1 (- 8518.0)) (* motzkin_1423_2 (- 1.0)) (* motzkin_1423_3 (- 1.0)) (* motzkin_1423_4 (- 1.0)) (* motzkin_1423_5 42617.0) (* motzkin_1423_6 (- 42617.0)) (* motzkin_1423_7 42621.0) (* motzkin_1423_10 24.0) (* motzkin_1423_11 (+ (* (- 1.0) liipp_4_c) 0.0)) (* motzkin_1423_13 (+ (* 1.0 liipp_1_c) 0.0))) 0.0) (> motzkin_1423_12 0.0)) (>= motzkin_1424_0 0.0) (>= motzkin_1424_1 0.0) (>= motzkin_1424_2 0.0) (>= motzkin_1424_3 0.0) (>= motzkin_1424_4 0.0) (>= motzkin_1424_5 0.0) (>= motzkin_1424_6 0.0) (>= motzkin_1424_7 0.0) (>= motzkin_1424_8 0.0) (>= motzkin_1424_9 0.0) (>= motzkin_1424_10 0.0) (>= motzkin_1424_11 0.0) (>= motzkin_1424_12 0.0) (>= motzkin_1424_13 0.0) (= (+ (* motzkin_1424_0 (- 1.0)) motzkin_1424_1 (* motzkin_1424_11 (+ (* (- 1.0) liipp_5__ULTIMATE.start_main_~a1~1) 0.0))) 0.0) (= (+ motzkin_1424_0 (* motzkin_1424_1 (- 1.0)) (* motzkin_1424_5 5.0) (* motzkin_1424_6 (- 5.0)) (* motzkin_1424_7 5.0)) 0.0) (= (+ motzkin_1424_2 motzkin_1424_5 (* motzkin_1424_6 (- 1.0))) 0.0) (= (+ motzkin_1424_3 (* motzkin_1424_5 (- 1.0)) motzkin_1424_6 (* motzkin_1424_7 (- 1.0)) motzkin_1424_8 (* motzkin_1424_9 (- 1.0)) (* motzkin_1424_10 (- 1.0))) 0.0) (= (+ (* motzkin_1424_4 (- 1.0)) (* motzkin_1424_8 (- 1.0)) motzkin_1424_9 (* motzkin_1424_12 (+ (* 1.0 liipp_0__ULTIMATE.start_main_~a1~1) 0.0)) (* motzkin_1424_13 (+ (* 1.0 liipp_1__ULTIMATE.start_main_~a1~1) 0.0))) 0.0) (= (+ (* motzkin_1424_8 25.0) (* motzkin_1424_9 (- 25.0))) 0.0) (= (+ (* motzkin_1424_11 (+ (* (- 1.0) |liipp_5__ULTIMATE.start_main_#res|) 0.0)) (* motzkin_1424_12 (+ (* 1.0 |liipp_0__ULTIMATE.start_main_#res|) 0.0)) (* motzkin_1424_13 (+ (* 1.0 |liipp_1__ULTIMATE.start_main_#res|) 0.0))) 0.0) (<= (+ (* motzkin_1424_0 8518.0) (* motzkin_1424_1 (- 8518.0)) (* motzkin_1424_2 (- 1.0)) (* motzkin_1424_3 (- 1.0)) (* motzkin_1424_4 (- 1.0)) (* motzkin_1424_5 42617.0) (* motzkin_1424_6 (- 42617.0)) (* motzkin_1424_7 42621.0) (* motzkin_1424_10 24.0) (* motzkin_1424_11 (+ (* (- 1.0) liipp_5_c) 0.0)) (* motzkin_1424_12 (+ (* 1.0 liipp_0_c) 0.0)) (* motzkin_1424_13 (+ (* 1.0 liipp_1_c) 0.0))) 0.0) (or (< (+ (* motzkin_1424_0 8518.0) (* motzkin_1424_1 (- 8518.0)) (* motzkin_1424_2 (- 1.0)) (* motzkin_1424_3 (- 1.0)) (* motzkin_1424_4 (- 1.0)) (* motzkin_1424_5 42617.0) (* motzkin_1424_6 (- 42617.0)) (* motzkin_1424_7 42621.0) (* motzkin_1424_10 24.0) (* motzkin_1424_13 (+ (* 1.0 liipp_1_c) 0.0))) 0.0) (> (+ motzkin_1424_11 motzkin_1424_12) 0.0)) (>= motzkin_1425_0 0.0) (>= motzkin_1425_1 0.0) (>= motzkin_1425_2 0.0) (>= motzkin_1425_3 0.0) (>= motzkin_1425_4 0.0) (>= motzkin_1425_5 0.0) (>= motzkin_1425_6 0.0) (>= motzkin_1425_7 0.0) (>= motzkin_1425_8 0.0) (>= motzkin_1425_9 0.0) (>= motzkin_1425_10 0.0) (>= motzkin_1425_11 0.0) (>= motzkin_1425_12 0.0) (= (+ (* motzkin_1425_0 (- 1.0)) motzkin_1425_2 motzkin_1425_6 (* motzkin_1425_7 (- 1.0)) (* motzkin_1425_8 (- 1.0)) motzkin_1425_9) 0.0) (= (+ (* motzkin_1425_0 5.0) (* motzkin_1425_2 (- 5.0)) (* motzkin_1425_3 (- 1.0)) motzkin_1425_4) 0.0) (= (+ motzkin_1425_0 (* motzkin_1425_5 (- 1.0))) 0.0) (= (+ motzkin_1425_1 (* motzkin_1425_6 (- 1.0)) motzkin_1425_7 (* motzkin_1425_11 (+ (* 1.0 liipp_0__ULTIMATE.start_main_~a1~1) 0.0)) (* motzkin_1425_12 (+ (* 1.0 liipp_1__ULTIMATE.start_main_~a1~1) 0.0))) 0.0) (= (+ motzkin_1425_3 (* motzkin_1425_4 (- 1.0)) (* motzkin_1425_10 (+ (* (- 1.0) liipp_4__ULTIMATE.start_main_~a1~1) 0.0))) 0.0) (= (+ (* motzkin_1425_6 25.0) (* motzkin_1425_7 (- 25.0))) 0.0) (= (+ (* motzkin_1425_10 (+ (* (- 1.0) |liipp_4__ULTIMATE.start_main_#res|) 0.0)) (* motzkin_1425_11 (+ (* 1.0 |liipp_0__ULTIMATE.start_main_#res|) 0.0)) (* motzkin_1425_12 (+ (* 1.0 |liipp_1__ULTIMATE.start_main_#res|) 0.0))) 0.0) (<= (+ (* motzkin_1425_0 42592.0) (* motzkin_1425_2 (- 42592.0)) (* motzkin_1425_3 (- 8517.0)) (* motzkin_1425_4 8517.0) (* motzkin_1425_8 24.0) (* motzkin_1425_10 (+ (* (- 1.0) liipp_4_c) 0.0)) (* motzkin_1425_11 (+ (* 1.0 liipp_0_c) 0.0)) (* motzkin_1425_12 (+ (* 1.0 liipp_1_c) 0.0))) 0.0) (or (< (+ (* motzkin_1425_0 42592.0) (* motzkin_1425_2 (- 42592.0)) (* motzkin_1425_3 (- 8517.0)) (* motzkin_1425_4 8517.0) (* motzkin_1425_8 24.0) (* motzkin_1425_10 (+ (* (- 1.0) liipp_4_c) 0.0)) (* motzkin_1425_12 (+ (* 1.0 liipp_1_c) 0.0))) 0.0) (> motzkin_1425_11 0.0)) (>= motzkin_1426_0 0.0) (>= motzkin_1426_1 0.0) (>= motzkin_1426_2 0.0) (>= motzkin_1426_3 0.0) (>= motzkin_1426_4 0.0) (>= motzkin_1426_5 0.0) (>= motzkin_1426_6 0.0) (>= motzkin_1426_7 0.0) (>= motzkin_1426_8 0.0) (>= motzkin_1426_9 0.0) (>= motzkin_1426_10 0.0) (>= motzkin_1426_11 0.0) (>= motzkin_1426_12 0.0) (= (+ (* motzkin_1426_0 (- 1.0)) motzkin_1426_2 motzkin_1426_6 (* motzkin_1426_7 (- 1.0)) (* motzkin_1426_8 (- 1.0)) motzkin_1426_9) 0.0) (= (+ (* motzkin_1426_0 5.0) (* motzkin_1426_2 (- 5.0)) (* motzkin_1426_3 (- 1.0)) motzkin_1426_4) 0.0) (= (+ motzkin_1426_0 (* motzkin_1426_5 (- 1.0))) 0.0) (= (+ motzkin_1426_1 (* motzkin_1426_6 (- 1.0)) motzkin_1426_7 (* motzkin_1426_11 (+ (* 1.0 liipp_0__ULTIMATE.start_main_~a1~1) 0.0)) (* motzkin_1426_12 (+ (* 1.0 liipp_1__ULTIMATE.start_main_~a1~1) 0.0))) 0.0) (= (+ motzkin_1426_3 (* motzkin_1426_4 (- 1.0)) (* motzkin_1426_10 (+ (* (- 1.0) liipp_5__ULTIMATE.start_main_~a1~1) 0.0))) 0.0) (= (+ (* motzkin_1426_6 25.0) (* motzkin_1426_7 (- 25.0))) 0.0) (= (+ (* motzkin_1426_10 (+ (* (- 1.0) |liipp_5__ULTIMATE.start_main_#res|) 0.0)) (* motzkin_1426_11 (+ (* 1.0 |liipp_0__ULTIMATE.start_main_#res|) 0.0)) (* motzkin_1426_12 (+ (* 1.0 |liipp_1__ULTIMATE.start_main_#res|) 0.0))) 0.0) (<= (+ (* motzkin_1426_0 42592.0) (* motzkin_1426_2 (- 42592.0)) (* motzkin_1426_3 (- 8517.0)) (* motzkin_1426_4 8517.0) (* motzkin_1426_8 24.0) (* motzkin_1426_10 (+ (* (- 1.0) liipp_5_c) 0.0)) (* motzkin_1426_11 (+ (* 1.0 liipp_0_c) 0.0)) (* motzkin_1426_12 (+ (* 1.0 liipp_1_c) 0.0))) 0.0) (or (< (+ (* motzkin_1426_0 42592.0) (* motzkin_1426_2 (- 42592.0)) (* motzkin_1426_3 (- 8517.0)) (* motzkin_1426_4 8517.0) (* motzkin_1426_8 24.0) (* motzkin_1426_12 (+ (* 1.0 liipp_1_c) 0.0))) 0.0) (> (+ motzkin_1426_10 motzkin_1426_11) 0.0)) (>= motzkin_1427_0 0.0) (>= motzkin_1427_1 0.0) (>= motzkin_1427_2 0.0) (>= motzkin_1427_3 0.0) (>= motzkin_1427_4 0.0) (>= motzkin_1427_5 0.0) (>= motzkin_1427_6 0.0) (>= motzkin_1427_7 0.0) (>= motzkin_1427_8 0.0) (>= motzkin_1427_9 0.0) (>= motzkin_1427_10 0.0) (>= motzkin_1427_11 0.0) (>= motzkin_1427_12 0.0) (= (+ motzkin_1427_0 (* motzkin_1427_1 (- 1.0)) (* motzkin_1427_2 (- 1.0)) (* motzkin_1427_3 (- 1.0)) motzkin_1427_7 (* motzkin_1427_8 (- 1.0)) motzkin_1427_9) 0.0) (= (+ (* motzkin_1427_0 (- 5.0)) (* motzkin_1427_1 5.0) (* motzkin_1427_3 5.0) motzkin_1427_4 (* motzkin_1427_5 (- 1.0))) 0.0) (= (+ (* motzkin_1427_0 (- 1.0)) motzkin_1427_1 motzkin_1427_6) 0.0) (= (+ (* motzkin_1427_4 (- 1.0)) motzkin_1427_5 (* motzkin_1427_10 (+ (* (- 1.0) liipp_4__ULTIMATE.start_main_~a1~1) 0.0))) 0.0) (= (+ (* motzkin_1427_7 (- 1.0)) motzkin_1427_8 (* motzkin_1427_11 (+ (* 1.0 liipp_0__ULTIMATE.start_main_~a1~1) 0.0)) (* motzkin_1427_12 (+ (* 1.0 liipp_1__ULTIMATE.start_main_~a1~1) 0.0))) 0.0) (= (+ (* motzkin_1427_7 25.0) (* motzkin_1427_8 (- 25.0))) 0.0) (= (+ (* motzkin_1427_10 (+ (* (- 1.0) |liipp_4__ULTIMATE.start_main_#res|) 0.0)) (* motzkin_1427_11 (+ (* 1.0 |liipp_0__ULTIMATE.start_main_#res|) 0.0)) (* motzkin_1427_12 (+ (* 1.0 |liipp_1__ULTIMATE.start_main_#res|) 0.0))) 0.0) (<= (+ (* motzkin_1427_0 (- 42592.0)) (* motzkin_1427_1 42592.0) (* motzkin_1427_3 42596.0) (* motzkin_1427_4 8518.0) (* motzkin_1427_5 (- 8518.0)) (* motzkin_1427_6 (- 1.0)) (* motzkin_1427_10 (+ (* (- 1.0) liipp_4_c) 0.0)) (* motzkin_1427_11 (+ (* 1.0 liipp_0_c) 0.0)) (* motzkin_1427_12 (+ (* 1.0 liipp_1_c) 0.0))) 0.0) (or (< (+ (* motzkin_1427_0 (- 42592.0)) (* motzkin_1427_1 42592.0) (* motzkin_1427_3 42596.0) (* motzkin_1427_4 8518.0) (* motzkin_1427_5 (- 8518.0)) (* motzkin_1427_6 (- 1.0)) (* motzkin_1427_10 (+ (* (- 1.0) liipp_4_c) 0.0)) (* motzkin_1427_12 (+ (* 1.0 liipp_1_c) 0.0))) 0.0) (> motzkin_1427_11 0.0)) (>= motzkin_1428_0 0.0) (>= motzkin_1428_1 0.0) (>= motzkin_1428_2 0.0) (>= motzkin_1428_3 0.0) (>= motzkin_1428_4 0.0) (>= motzkin_1428_5 0.0) (>= motzkin_1428_6 0.0) (>= motzkin_1428_7 0.0) (>= motzkin_1428_8 0.0) (>= motzkin_1428_9 0.0) (>= motzkin_1428_10 0.0) (>= motzkin_1428_11 0.0) (>= motzkin_1428_12 0.0) (= (+ motzkin_1428_0 (* motzkin_1428_1 (- 1.0)) (* motzkin_1428_2 (- 1.0)) (* motzkin_1428_3 (- 1.0)) motzkin_1428_7 (* motzkin_1428_8 (- 1.0)) motzkin_1428_9) 0.0) (= (+ (* motzkin_1428_0 (- 5.0)) (* motzkin_1428_1 5.0) (* motzkin_1428_3 5.0) motzkin_1428_4 (* motzkin_1428_5 (- 1.0))) 0.0) (= (+ (* motzkin_1428_0 (- 1.0)) motzkin_1428_1 motzkin_1428_6) 0.0) (= (+ (* motzkin_1428_4 (- 1.0)) motzkin_1428_5 (* motzkin_1428_10 (+ (* (- 1.0) liipp_5__ULTIMATE.start_main_~a1~1) 0.0))) 0.0) (= (+ (* motzkin_1428_7 (- 1.0)) motzkin_1428_8 (* motzkin_1428_11 (+ (* 1.0 liipp_0__ULTIMATE.start_main_~a1~1) 0.0)) (* motzkin_1428_12 (+ (* 1.0 liipp_1__ULTIMATE.start_main_~a1~1) 0.0))) 0.0) (= (+ (* motzkin_1428_7 25.0) (* motzkin_1428_8 (- 25.0))) 0.0) (= (+ (* motzkin_1428_10 (+ (* (- 1.0) |liipp_5__ULTIMATE.start_main_#res|) 0.0)) (* motzkin_1428_11 (+ (* 1.0 |liipp_0__ULTIMATE.start_main_#res|) 0.0)) (* motzkin_1428_12 (+ (* 1.0 |liipp_1__ULTIMATE.start_main_#res|) 0.0))) 0.0) (<= (+ (* motzkin_1428_0 (- 42592.0)) (* motzkin_1428_1 42592.0) (* motzkin_1428_3 42596.0) (* motzkin_1428_4 8518.0) (* motzkin_1428_5 (- 8518.0)) (* motzkin_1428_6 (- 1.0)) (* motzkin_1428_10 (+ (* (- 1.0) liipp_5_c) 0.0)) (* motzkin_1428_11 (+ (* 1.0 liipp_0_c) 0.0)) (* motzkin_1428_12 (+ (* 1.0 liipp_1_c) 0.0))) 0.0) (or (< (+ (* motzkin_1428_0 (- 42592.0)) (* motzkin_1428_1 42592.0) (* motzkin_1428_3 42596.0) (* motzkin_1428_4 8518.0) (* motzkin_1428_5 (- 8518.0)) (* motzkin_1428_6 (- 1.0)) (* motzkin_1428_12 (+ (* 1.0 liipp_1_c) 0.0))) 0.0) (> (+ motzkin_1428_10 motzkin_1428_11) 0.0))))
(declare-fun liipp_11_replace_0 () Real)
(declare-fun motzkin_1429_0 () Real)
(declare-fun motzkin_1429_1 () Real)
(declare-fun motzkin_1429_2 () Real)
(declare-fun motzkin_1430_0 () Real)
(declare-fun motzkin_1430_1 () Real)
(declare-fun motzkin_1430_2 () Real)
(assert (and (>= motzkin_1429_0 0.0) (>= motzkin_1429_1 0.0) (>= motzkin_1429_2 0.0) (= (+ motzkin_1429_0 (* motzkin_1429_1 (+ (* 1.0 liipp_4__ULTIMATE.start_main_~a1~1) 0.0)) (* motzkin_1429_2 (+ (* 1.0 liipp_5__ULTIMATE.start_main_~a1~1) 0.0))) 0.0) (= (+ (* motzkin_1429_1 (+ (* 1.0 |liipp_4__ULTIMATE.start_main_#res|) 0.0)) (* motzkin_1429_2 (+ (* 1.0 |liipp_5__ULTIMATE.start_main_#res|) 0.0))) 0.0) (<= (+ (* motzkin_1429_0 (- 1.0)) (* motzkin_1429_1 (+ (* 1.0 liipp_4_c) 0.0)) (* motzkin_1429_2 (+ (* 1.0 liipp_5_c) 0.0))) 0.0) (or (< (+ (* motzkin_1429_0 (- 1.0)) (* motzkin_1429_2 (+ (* 1.0 liipp_5_c) 0.0))) 0.0) (> motzkin_1429_1 0.0)) (>= motzkin_1430_0 0.0) (>= motzkin_1430_1 0.0) (>= motzkin_1430_2 0.0) (= (+ (* motzkin_1430_0 (- 1.0)) (* motzkin_1430_1 (+ (* 1.0 liipp_4__ULTIMATE.start_main_~a1~1) 0.0)) (* motzkin_1430_2 (+ (* 1.0 liipp_5__ULTIMATE.start_main_~a1~1) 0.0))) 0.0) (= (+ (* motzkin_1430_1 (+ (* 1.0 |liipp_4__ULTIMATE.start_main_#res|) 0.0)) (* motzkin_1430_2 (+ (* 1.0 |liipp_5__ULTIMATE.start_main_#res|) 0.0))) 0.0) (<= (+ (* motzkin_1430_0 (- 1.0)) (* motzkin_1430_1 (+ (* 1.0 liipp_4_c) 0.0)) (* motzkin_1430_2 (+ (* 1.0 liipp_5_c) 0.0))) 0.0) (or (< (+ (* motzkin_1430_0 (- 1.0)) (* motzkin_1430_2 (+ (* 1.0 liipp_5_c) 0.0))) 0.0) (> motzkin_1430_1 0.0))))
(check-sat)
(exit)
